
******************************************************************************
This program contains Ipopt, a library for large-scale nonlinear optimization.
 Ipopt is released as open source code under the Eclipse Public License (EPL).
         For more information visit http://projects.coin-or.org/Ipopt
******************************************************************************

This is Ipopt version 3.12.6, running with linear solver ma57.

Number of nonzeros in equality constraint Jacobian...:        0
Number of nonzeros in inequality constraint Jacobian.:      301
Number of nonzeros in Lagrangian Hessian.............:        3

Total number of variables............................:        3
                     variables with only lower bounds:        0
                variables with lower and upper bounds:        0
                     variables with only upper bounds:        0
Total number of equality constraints.................:        0
Total number of inequality constraints...............:      101
        inequality constraints with only lower bounds:        0
   inequality constraints with lower and upper bounds:        0
        inequality constraints with only upper bounds:      101

iter    objective    inf_pr   inf_du lg(mu)  ||d||  lg(rg) alpha_du alpha_pr  ls
   0  5.3670031e+00 0.00e+00 9.79e-01  -1.0 0.00e+00    -  0.00e+00 0.00e+00   0
   1  5.3725238e+00 0.00e+00 3.56e-01  -1.7 5.42e-02    -  7.35e-01 1.00e+00f  1
   2  5.4322004e+00 0.00e+00 9.99e-01  -1.7 6.78e-02    -  3.94e-01 1.00e+00f  1
   3  5.5488492e+00 0.00e+00 1.05e-02  -1.7 8.28e-02    -  1.00e+00 1.00e+00f  1
   4  4.6710425e+00 0.00e+00 2.97e-02  -2.5 5.91e-01    -  1.00e+00 1.00e+00f  1
   5  4.5189632e+00 0.00e+00 4.28e-03  -2.5 1.84e-01    -  1.00e+00 1.00e+00f  1
   6  4.3328506e+00 0.00e+00 2.99e-03  -3.8 1.92e-01    -  1.00e+00 7.52e-01f  1
   7  4.3068198e+00 0.00e+00 7.87e-02  -3.8 8.28e-02    -  1.00e+00 8.19e-01f  1
   8  4.3051450e+00 0.00e+00 9.79e-01  -3.8 1.82e-02    -  2.35e-01 1.00e+00f  1
   9  4.3030810e+00 0.00e+00 5.84e-05  -3.8 1.14e-02    -  1.00e+00 1.00e+00f  1
iter    objective    inf_pr   inf_du lg(mu)  ||d||  lg(rg) alpha_du alpha_pr  ls
  10  4.3013396e+00 0.00e+00 7.90e-02  -5.7 1.79e-02    -  9.58e-01 4.98e-01f  1
  11  4.3011782e+00 0.00e+00 8.38e-01  -5.7 5.94e-03    -  5.38e-01 9.96e-01f  1
  12  4.3011612e+00 0.00e+00 5.51e-01  -5.7 2.85e-03    -  9.41e-01 4.08e-01f  1
  13  4.3011656e+00 0.00e+00 6.66e-08  -5.7 3.89e-04    -  1.00e+00 1.00e+00f  1
  14  4.3011583e+00 0.00e+00 7.52e-03  -8.6 7.58e-05    -  1.00e+00 9.30e-01f  1
  15  4.3011579e+00 0.00e+00 1.81e-09  -8.6 6.41e-05    -  1.00e+00 1.00e+00f  1

Number of Iterations....: 15

                                   (scaled)                 (unscaled)
Objective...............:   4.3011578633681635e+00    4.3011578633681635e+00
Dual infeasibility......:   1.8117375377713074e-09    1.8117375377713074e-09
Constraint violation....:   0.0000000000000000e+00    0.0000000000000000e+00
Complementarity.........:   7.3838238375413615e-09    7.3838238375413615e-09
Overall NLP error.......:   7.3838238375413615e-09    7.3838238375413615e-09


Number of objective function evaluations             = 16
Number of objective gradient evaluations             = 16
Number of equality constraint evaluations            = 0
Number of inequality constraint evaluations          = 16
Number of equality constraint Jacobian evaluations   = 0
Number of inequality constraint Jacobian evaluations = 16
Number of Lagrangian Hessian evaluations             = 15
Total CPU secs in IPOPT (w/o function evaluations)   =      0.013
Total CPU secs in NLP function evaluations           =      0.000

EXIT: Optimal Solution Found.

************************ CUTEst statistics ************************


 Package used            :  IPOPT
 Problem                 :  TFI3      
 # variables             =               3
 # constraints           =             101
 # objective functions   =        0.3300000E+02
 # objective gradients   =        0.1700000E+02
 # objective Hessians    =        0.1600000E+02
 # Hessian-vector prdct  =        0.0000000E+00
 # constraints functions =        0.3400000E+02
 # constraints gradients =        0.1800000E+02
 # constraints Hessians  =        0.1600000E+02
 Exit code               =               0
 Final f                 =   0.4301158E+01
 Set up time             =            0.00 seconds
 Solve time              =            0.03 seconds


******************************************************************

System Time =       0.0060000001 s.
